presolving:
(round 1, fast)       1144 del vars, 62 del conss, 0 add conss, 0 chg bounds, 62 chg sides, 62 chg coeffs, 0 upgd conss, 0 impls, 9441 clqs
   (0.1s) running MILP presolver
   (0.1s) MILP presolver found nothing
(round 2, exhaustive) 1144 del vars, 62 del conss, 0 add conss, 0 chg bounds, 62 chg sides, 62 chg coeffs, 9453 upgd conss, 0 impls, 9441 clqs
   (5.4s) probing: 1000/8362 (12.0%) - 0 fixings, 0 aggregations, 3417319 implications, 0 bound changes
   (5.4s) probing: 1001/8362 (12.0%) - 0 fixings, 0 aggregations, 3420452 implications, 0 bound changes
   (5.4s) probing aborted: 1000/1000 successive useless probings
   (5.5s) symmetry computation started: requiring (bin +, int -, cont +), (fixed: bin -, int +, cont -)
   (5.5s) no symmetry present
presolving (3 rounds: 3 fast, 2 medium, 2 exhaustive):
 1144 deleted vars, 62 deleted constraints, 0 added constraints, 0 tightened bounds, 0 added holes, 62 changed sides, 74 changed coefficients
 0 implications, 31214 cliques
presolved problem has 8362 variables (8362 bin, 0 int, 0 impl, 0 cont) and 9453 constraints
     12 constraints of type <knapsack>
   9441 constraints of type <setppc>
transformed objective value is always integral (scale: 1)
Presolving Time: 5.45

 time | node  | left  |LP iter|LP it/n|mem/heur|mdpt |vars |cons |rows |cuts |sepa|confs|strbr|  dualbound   | primalbound  |  gap   | compl. 
p 5.5s|     1 |     0 |     0 |     - |  clique|   0 |8362 |9453 |9453 |   0 |  0 |   0 |   0 | 0.000000e+00 | 6.499800e+04 |    Inf | unknown
  5.9s|     1 |     0 |  1569 |     - |   118M |   0 |8362 |9464 |9453 |   0 |  0 |  11 |   0 | 3.659050e+04 | 6.499800e+04 |  77.64%| unknown
  7.3s|     1 |     0 |  2181 |     - |   121M |   0 |8362 |9465 |9457 |   4 |  1 |  12 |   0 | 3.746708e+04 | 6.499800e+04 |  73.48%| unknown
  9.5s|     1 |     0 |  2494 |     - |   127M |   0 |8362 |9465 |9460 |   7 |  2 |  12 |   0 | 3.770962e+04 | 6.499800e+04 |  72.36%| unknown
 12.6s|     1 |     0 |  2898 |     - |   135M |   0 |8362 |9465 |9463 |  10 |  3 |  12 |   0 | 3.808711e+04 | 6.499800e+04 |  70.66%| unknown
 14.7s|     1 |     0 |  3072 |     - |   141M |   0 |8362 |9465 |9465 |  12 |  4 |  12 |   0 | 3.818302e+04 | 6.499800e+04 |  70.23%| unknown
 16.0s|     1 |     0 |  3485 |     - |   147M |   0 |8362 |9465 |9470 |  17 |  5 |  12 |   0 | 3.833115e+04 | 6.499800e+04 |  69.57%| unknown
 16.6s|     1 |     0 |  3999 |     - |   148M |   0 |8362 |9465 |9473 |  20 |  6 |  12 |   0 | 3.848791e+04 | 6.499800e+04 |  68.88%| unknown
 17.1s|     1 |     0 |  4213 |     - |   149M |   0 |8362 |9465 |9477 |  24 |  7 |  12 |   0 | 3.854378e+04 | 6.499800e+04 |  68.63%| unknown
 17.6s|     1 |     0 |  4516 |     - |   150M |   0 |8362 |9465 |9481 |  28 |  8 |  12 |   0 | 3.865494e+04 | 6.499800e+04 |  68.15%| unknown
 18.1s|     1 |     0 |  4664 |     - |   151M |   0 |8362 |9465 |9484 |  31 |  9 |  12 |   0 | 3.871957e+04 | 6.499800e+04 |  67.87%| unknown
 18.5s|     1 |     0 |  4730 |     - |   152M |   0 |8362 |9465 |9485 |  32 | 10 |  12 |   0 | 3.872750e+04 | 6.499800e+04 |  67.83%| unknown
 18.7s|     1 |     0 |  4885 |     - |   153M |   0 |8362 |9465 |9488 |  35 | 11 |  12 |   0 | 3.875475e+04 | 6.499800e+04 |  67.72%| unknown
 18.9s|     1 |     0 |  5045 |     - |   154M |   0 |8362 |9465 |9492 |  39 | 12 |  12 |   0 | 3.884070e+04 | 6.499800e+04 |  67.35%| unknown
 19.1s|     1 |     0 |  5175 |     - |   155M |   0 |8362 |9466 |9495 |  42 | 13 |  13 |   0 | 3.890235e+04 | 6.499800e+04 |  67.08%| unknown
 time | node  | left  |LP iter|LP it/n|mem/heur|mdpt |vars |cons |rows |cuts |sepa|confs|strbr|  dualbound   | primalbound  |  gap   | compl. 
 19.3s|     1 |     0 |  5272 |     - |   157M |   0 |8362 |9466 |9498 |  45 | 14 |  13 |   0 | 3.893576e+04 | 6.499800e+04 |  66.94%| unknown
 19.5s|     1 |     0 |  5343 |     - |   158M |   0 |8362 |9466 |9499 |  47 | 15 |  13 |   0 | 3.896893e+04 | 6.499800e+04 |  66.79%| unknown
 19.6s|     1 |     0 |  5385 |     - |   159M |   0 |8362 |9467 |9501 |  49 | 16 |  14 |   0 | 3.898346e+04 | 6.499800e+04 |  66.73%| unknown
 19.8s|     1 |     0 |  5505 |     - |   160M |   0 |8362 |9467 |9505 |  53 | 17 |  14 |   0 | 3.901314e+04 | 6.499800e+04 |  66.61%| unknown
 19.9s|     1 |     0 |  5572 |     - |   161M |   0 |8362 |9468 |9506 |  54 | 18 |  15 |   0 | 3.902079e+04 | 6.499800e+04 |  66.57%| unknown
 20.1s|     1 |     0 |  5668 |     - |   162M |   0 |8362 |9468 |9509 |  57 | 19 |  15 |   0 | 3.904388e+04 | 6.499800e+04 |  66.47%| unknown
 20.3s|     1 |     0 |  5691 |     - |   163M |   0 |8362 |9468 |9511 |  59 | 20 |  15 |   0 | 3.904665e+04 | 6.499800e+04 |  66.46%| unknown
 20.4s|     1 |     0 |  5798 |     - |   163M |   0 |8362 |9468 |9523 |  76 | 21 |  15 |   0 | 3.905414e+04 | 6.499800e+04 |  66.43%| unknown
 20.6s|     1 |     0 |  5804 |     - |   163M |   0 |8362 |9469 |9524 |  77 | 22 |  16 |   0 | 3.905434e+04 | 6.499800e+04 |  66.43%| unknown
d22.7s|     1 |     0 | 10930 |     - |farkasdi|   0 |8362 |9469 |9524 |   0 | 24 |  16 |   0 | 3.905434e+04 | 6.085500e+04 |  55.82%| unknown
 27.4s|     1 |     0 | 27576 |     - |   165M |   0 |8362 |9469 |9524 |  77 | 24 |  16 |   0 | 3.905434e+04 | 6.085500e+04 |  55.82%| unknown
 27.5s|     1 |     0 | 27584 |     - |   165M |   0 |8362 |9469 |9526 |  79 | 25 |  16 |   0 | 3.905455e+04 | 6.085500e+04 |  55.82%| unknown
 33.1s|     1 |     2 | 27584 |     - |   165M |   0 |8362 |9470 |9526 |  79 | 26 |  17 |  20 | 3.940188e+04 | 6.085500e+04 |  54.45%| unknown
r40.6s|     6 |     5 | 29366 |4762.2 |rounding|   5 |8362 |9470 |9502 |  79 |  0 |  17 | 101 | 3.940188e+04 | 5.387200e+04 |  36.72%| unknown
*40.6s|     6 |     5 | 29366 |4762.2 |strongbr|   5 |8362 |9470 |9502 |  79 |  1 |  17 | 102 | 3.940188e+04 | 4.835400e+04 |  22.72%| unknown
 time | node  | left  |LP iter|LP it/n|mem/heur|mdpt |vars |cons |rows |cuts |sepa|confs|strbr|  dualbound   | primalbound  |  gap   | compl. 
*40.8s|     7 |     4 | 29440 |3980.8 |strongbr|   5 |8362 |9472 |9502 |  79 |  4 |  19 | 106 | 3.940188e+04 | 4.792600e+04 |  21.63%|   2.35%
*53.6s|    13 |     6 | 32499 |2245.3 |strongbr|   5 |8362 |9477 |9502 |  79 |  3 |  24 | 199 | 3.982089e+04 | 4.751900e+04 |  19.33%|   9.26%
*54.1s|    14 |     5 | 32648 |2084.1 |strongbr|   5 |8362 |9478 |9502 |  79 |  2 |  25 | 211 | 3.982089e+04 | 4.653100e+04 |  16.85%|  10.41%
*59.4s|    16 |     3 | 33206 |1843.4 |strongbr|   5 |8362 |9486 |9502 |  79 |  2 |  39 | 269 | 3.982089e+04 | 4.531800e+04 |  13.80%|  14.77%
 86.4s|   100 |     3 | 55437 | 503.9 |   191M |  16 |8362 |9536 |9504 | 136 |  0 |  91 | 395 | 4.062243e+04 | 4.531800e+04 |  11.56%|  44.44%
*87.0s|   113 |     4 | 57141 | 460.6 |    LP  |  16 |8362 |9535 |9502 | 136 |  1 |  91 | 395 | 4.062243e+04 | 4.478300e+04 |  10.24%|  48.20%
*87.3s|   120 |     4 | 57898 | 439.9 |    LP  |  16 |8362 |9534 |9502 | 136 |  1 |  91 | 395 | 4.074230e+04 | 4.339100e+04 |   6.50%|  50.98%
*87.7s|   129 |     5 | 58793 | 415.9 |    LP  |  16 |8362 |9534 |9502 | 136 |  2 |  91 | 395 | 4.080711e+04 | 4.323000e+04 |   5.94%|  58.98%

SCIP Status        : problem is solved [optimal solution found]
Solving Time (sec) : 89.90
Solving Nodes      : 152
Primal Bound       : +4.32300000000000e+04 (12 solutions)
Dual Bound         : +4.32300000000000e+04
Gap                : 0.00 %
Solve Status: optimal
Solve Time: 89.90 seconds
Objective Value: 43230.00
